c created by edge2cnf
p cnf 100 399
-1 -99 0
-1 -98 0
-1 -5 0
-1 -62 0
-1 -59 0
-1 -13 0
-1 -35 0
-2 -4 0
-2 -100 0
-2 -9 0
-2 -43 0
-2 -33 0
-2 -35 0
-2 -93 0
-2 -25 0
-2 -77 0
-3 -99 0
-3 -82 0
-3 -66 0
-3 -49 0
-4 -7 0
-4 -92 0
-4 -40 0
-4 -57 0
-4 -89 0
-4 -86 0
-5 -6 0
-5 -9 0
-5 -7 0
-5 -42 0
-5 -72 0
-5 -100 0
-5 -50 0
-5 -98 0
-5 -93 0
-6 -8 0
-6 -65 0
-6 -20 0
-6 -46 0
-6 -100 0
-6 -51 0
-6 -38 0
-7 -10 0
-7 -9 0
-7 -25 0
-7 -55 0
-7 -24 0
-7 -74 0
-7 -73 0
-7 -15 0
-8 -95 0
-8 -25 0
-8 -19 0
-8 -91 0
-8 -87 0
-8 -43 0
-9 -25 0
-9 -71 0
-9 -35 0
-9 -72 0
-9 -93 0
-9 -84 0
-9 -92 0
-10 -14 0
-10 -42 0
-10 -23 0
-10 -50 0
-10 -40 0
-11 -15 0
-11 -13 0
-11 -54 0
-11 -62 0
-11 -47 0
-11 -97 0
-11 -85 0
-11 -73 0
-11 -60 0
-11 -25 0
-12 -13 0
-12 -19 0
-12 -34 0
-12 -80 0
-12 -64 0
-12 -83 0
-12 -90 0
-12 -63 0
-13 -14 0
-13 -17 0
-13 -42 0
-13 -84 0
-13 -22 0
-13 -100 0
-13 -70 0
-13 -77 0
-14 -18 0
-14 -17 0
-14 -16 0
-14 -92 0
-14 -77 0
-14 -45 0
-14 -37 0
-14 -81 0
-14 -32 0
-14 -22 0
-15 -18 0
-15 -99 0
-15 -31 0
-15 -25 0
-15 -87 0
-15 -94 0
-15 -84 0
-16 -18 0
-16 -19 0
-16 -62 0
-16 -23 0
-16 -80 0
-17 -19 0
-17 -46 0
-17 -62 0
-17 -87 0
-17 -78 0
-17 -63 0
-17 -58 0
-17 -76 0
-17 -44 0
-18 -20 0
-18 -100 0
-18 -59 0
-18 -94 0
-18 -31 0
-18 -49 0
-18 -40 0
-19 -20 0
-19 -22 0
-19 -21 0
-19 -73 0
-19 -99 0
-19 -81 0
-19 -82 0
-20 -24 0
-20 -65 0
-20 -52 0
-20 -69 0
-20 -63 0
-21 -90 0
-21 -100 0
-21 -42 0
-21 -47 0
-21 -34 0
-21 -31 0
-22 -25 0
-22 -23 0
-22 -80 0
-22 -76 0
-22 -77 0
-22 -81 0
-22 -82 0
-23 -26 0
-23 -25 0
-23 -99 0
-23 -32 0
-23 -30 0
-23 -73 0
-23 -89 0
-23 -46 0
-23 -58 0
-23 -54 0
-24 -26 0
-24 -76 0
-24 -30 0
-24 -63 0
-25 -29 0
-25 -84 0
-25 -52 0
-25 -36 0
-25 -53 0
-26 -27 0
-26 -95 0
-26 -68 0
-26 -37 0
-27 -30 0
-27 -78 0
-27 -45 0
-27 -89 0
-27 -92 0
-27 -47 0
-28 -78 0
-28 -42 0
-28 -74 0
-28 -58 0
-28 -91 0
-28 -53 0
-28 -34 0
-29 -31 0
-29 -99 0
-29 -62 0
-29 -81 0
-30 -34 0
-30 -67 0
-30 -100 0
-30 -97 0
-30 -55 0
-31 -35 0
-31 -34 0
-31 -61 0
-31 -44 0
-32 -36 0
-32 -100 0
-33 -34 0
-33 -92 0
-33 -39 0
-33 -38 0
-34 -36 0
-34 -67 0
-34 -77 0
-34 -70 0
-34 -66 0
-35 -38 0
-35 -37 0
-35 -84 0
-35 -70 0
-35 -86 0
-35 -41 0
-36 -37 0
-36 -95 0
-36 -85 0
-37 -50 0
-37 -66 0
-37 -89 0
-37 -79 0
-38 -40 0
-38 -97 0
-38 -78 0
-38 -81 0
-38 -84 0
-38 -79 0
-39 -43 0
-39 -64 0
-39 -49 0
-39 -54 0
-40 -44 0
-40 -48 0
-40 -49 0
-41 -44 0
-41 -45 0
-42 -86 0
-42 -76 0
-42 -94 0
-42 -91 0
-43 -46 0
-43 -44 0
-43 -77 0
-43 -89 0
-43 -62 0
-44 -97 0
-44 -84 0
-44 -86 0
-44 -95 0
-44 -93 0
-45 -46 0
-45 -96 0
-45 -67 0
-45 -55 0
-45 -63 0
-46 -68 0
-46 -72 0
-46 -79 0
-46 -92 0
-46 -89 0
-47 -48 0
-47 -51 0
-47 -57 0
-48 -52 0
-48 -69 0
-48 -53 0
-49 -51 0
-49 -50 0
-49 -56 0
-50 -54 0
-50 -52 0
-50 -77 0
-50 -84 0
-51 -52 0
-51 -70 0
-51 -71 0
-51 -75 0
-52 -100 0
-52 -61 0
-52 -64 0
-52 -65 0
-53 -54 0
-53 -71 0
-53 -78 0
-54 -65 0
-54 -96 0
-55 -56 0
-55 -57 0
-55 -72 0
-55 -78 0
-55 -75 0
-55 -100 0
-55 -61 0
-55 -69 0
-56 -58 0
-56 -59 0
-56 -64 0
-56 -94 0
-57 -59 0
-57 -61 0
-57 -100 0
-57 -81 0
-57 -99 0
-57 -65 0
-58 -73 0
-58 -72 0
-59 -60 0
-59 -80 0
-59 -77 0
-59 -78 0
-59 -69 0
-59 -94 0
-60 -64 0
-60 -99 0
-61 -64 0
-61 -65 0
-61 -88 0
-61 -91 0
-62 -85 0
-62 -96 0
-63 -67 0
-63 -99 0
-63 -92 0
-63 -69 0
-64 -67 0
-64 -80 0
-64 -75 0
-64 -98 0
-65 -99 0
-65 -74 0
-65 -70 0
-65 -85 0
-66 -68 0
-66 -70 0
-66 -86 0
-67 -73 0
-69 -70 0
-70 -73 0
-70 -99 0
-71 -72 0
-71 -84 0
-72 -76 0
-72 -77 0
-73 -95 0
-73 -79 0
-73 -92 0
-74 -91 0
-74 -93 0
-74 -100 0
-75 -78 0
-75 -84 0
-75 -97 0
-76 -79 0
-76 -77 0
-76 -97 0
-77 -78 0
-77 -81 0
-77 -91 0
-78 -80 0
-78 -82 0
-78 -95 0
-79 -83 0
-79 -81 0
-79 -96 0
-80 -82 0
-80 -86 0
-81 -83 0
-81 -84 0
-81 -94 0
-83 -86 0
-83 -100 0
-83 -93 0
-83 -88 0
-84 -88 0
-84 -87 0
-84 -99 0
-85 -86 0
-85 -90 0
-86 -90 0
-86 -87 0
-87 -89 0
-87 -94 0
-89 -93 0
-90 -91 0
-92 -94 0
-93 -97 0
-95 -99 0
-95 -96 0
-96 -98 0
-97 -100 0
